* #variable= 972 #constraint= 951 
+1 x25 -1 x1 >= 0 ;
+1 x25 -1 x13 >= 0 ;
-1 x25 +1 x1 +1 x13 >= 0 ;
+1 x37 -1 x13 >= 0 ;
+1 x37 -1 x49 >= 0 ;
-1 x37 +1 x13 +1 x49 >= 0 ;
+1 x13 = 0 ;
+1 x26 -1 x2 >= 0 ;
+1 x26 -1 x14 >= 0 ;
-1 x26 +1 x2 +1 x14 >= 0 ;
+1 x38 -1 x14 >= 0 ;
+1 x38 -1 x50 >= 0 ;
-1 x38 +1 x14 +1 x50 >= 0 ;
+1 x14 = 1 ;
+1 x27 -1 x3 >= 0 ;
+1 x27 -1 x15 >= 0 ;
-1 x27 +1 x3 +1 x15 >= 0 ;
+1 x39 -1 x15 >= 0 ;
+1 x39 -1 x51 >= 0 ;
-1 x39 +1 x15 +1 x51 >= 0 ;
+1 x15 = 0 ;
+1 x28 -1 x4 >= 0 ;
+1 x28 -1 x16 >= 0 ;
-1 x28 +1 x4 +1 x16 >= 0 ;
+1 x40 -1 x16 >= 0 ;
+1 x40 -1 x52 >= 0 ;
-1 x40 +1 x16 +1 x52 >= 0 ;
+1 x16 = 1 ;
+1 x29 -1 x5 >= 0 ;
+1 x29 -1 x17 >= 0 ;
-1 x29 +1 x5 +1 x17 >= 0 ;
+1 x41 -1 x17 >= 0 ;
+1 x41 -1 x53 >= 0 ;
-1 x41 +1 x17 +1 x53 >= 0 ;
+1 x17 = 0 ;
+1 x30 -1 x6 >= 0 ;
+1 x30 -1 x18 >= 0 ;
-1 x30 +1 x6 +1 x18 >= 0 ;
+1 x42 -1 x18 >= 0 ;
+1 x42 -1 x54 >= 0 ;
-1 x42 +1 x18 +1 x54 >= 0 ;
+1 x18 = 1 ;
+1 x31 -1 x7 >= 0 ;
+1 x31 -1 x19 >= 0 ;
-1 x31 +1 x7 +1 x19 >= 0 ;
+1 x43 -1 x19 >= 0 ;
+1 x43 -1 x55 >= 0 ;
-1 x43 +1 x19 +1 x55 >= 0 ;
+1 x19 = 0 ;
+1 x32 -1 x8 >= 0 ;
+1 x32 -1 x20 >= 0 ;
-1 x32 +1 x8 +1 x20 >= 0 ;
+1 x44 -1 x20 >= 0 ;
+1 x44 -1 x56 >= 0 ;
-1 x44 +1 x20 +1 x56 >= 0 ;
+1 x20 = 1 ;
+1 x33 -1 x9 >= 0 ;
+1 x33 -1 x21 >= 0 ;
-1 x33 +1 x9 +1 x21 >= 0 ;
+1 x45 -1 x21 >= 0 ;
+1 x45 -1 x57 >= 0 ;
-1 x45 +1 x21 +1 x57 >= 0 ;
+1 x21 = 0 ;
+1 x34 -1 x10 >= 0 ;
+1 x34 -1 x22 >= 0 ;
-1 x34 +1 x10 +1 x22 >= 0 ;
+1 x46 -1 x22 >= 0 ;
+1 x46 -1 x58 >= 0 ;
-1 x46 +1 x22 +1 x58 >= 0 ;
+1 x22 = 1 ;
+1 x35 -1 x11 >= 0 ;
+1 x35 -1 x23 >= 0 ;
-1 x35 +1 x11 +1 x23 >= 0 ;
+1 x47 -1 x23 >= 0 ;
+1 x47 -1 x59 >= 0 ;
-1 x47 +1 x23 +1 x59 >= 0 ;
+1 x23 = 0 ;
+1 x36 -1 x12 >= 0 ;
+1 x36 -1 x24 >= 0 ;
-1 x36 +1 x12 +1 x24 >= 0 ;
+1 x48 -1 x24 >= 0 ;
+1 x48 -1 x60 >= 0 ;
-1 x48 +1 x24 +1 x60 >= 0 ;
+1 x24 = 1 ;
-1 x61 +1 x25 >= 0 ;
-1 x61 +1 x37 >= 0 ;
+1 x61 -1 x25 -1 x37 >= -1 ;
+1 x61 +2 x73 +4 x85 +8 x97 +16 x109 +32 x121 +64 x133 +128 x145 +256 x157 +512 x169 +1024 x181 +2048 x193 +2 x62 +4 x74 +8 x86 +16 x98 +32 x110 +64 x122 +128 x134 +256 x146 +512 x158 +1024 x170 +2048 x182 +4096 x194 +4 x63 +8 x75 +16 x87 +32 x99 +64 x111 +128 x123 +256 x135 +512 x147 +1024 x159 +2048 x171 +4096 x183 +8192 x195 +8 x64 +16 x76 +32 x88 +64 x100 +128 x112 +256 x124 +512 x136 +1024 x148 +2048 x160 +4096 x172 +8192 x184 +16384 x196 +16 x65 +32 x77 +64 x89 +128 x101 +256 x113 +512 x125 +1024 x137 +2048 x149 +4096 x161 +8192 x173 +16384 x185 +32768 x197 +32 x66 +64 x78 +128 x90 +256 x102 +512 x114 +1024 x126 +2048 x138 +4096 x150 +8192 x162 +16384 x174 +32768 x186 +65536 x198 +64 x67 +128 x79 +256 x91 +512 x103 +1024 x115 +2048 x127 +4096 x139 +8192 x151 +16384 x163 +32768 x175 +65536 x187 +131072 x199 +128 x68 +256 x80 +512 x92 +1024 x104 +2048 x116 +4096 x128 +8192 x140 +16384 x152 +32768 x164 +65536 x176 +131072 x188 +262144 x200 +256 x69 +512 x81 +1024 x93 +2048 x105 +4096 x117 +8192 x129 +16384 x141 +32768 x153 +65536 x165 +131072 x177 +262144 x189 +524288 x201 +512 x70 +1024 x82 +2048 x94 +4096 x106 +8192 x118 +16384 x130 +32768 x142 +65536 x154 +131072 x166 +262144 x178 +524288 x190 +1048576 x202 +1024 x71 +2048 x83 +4096 x95 +8192 x107 +16384 x119 +32768 x131 +65536 x143 +131072 x155 +262144 x167 +524288 x179 +1048576 x191 +2097152 x203 +2048 x72 +4096 x84 +8192 x96 +16384 x108 +32768 x120 +65536 x132 +131072 x144 +262144 x156 +524288 x168 +1048576 x180 +2097152 x192 +4194304 x204 -1 x925 -2 x926 -4 x927 -8 x928 -16 x929 -32 x930 -64 x931 -128 x932 -256 x933 -512 x934 -1024 x935 -2048 x936 -4096 x937 -8192 x938 -16384 x939 -32768 x940 -65536 x941 -131072 x942 -262144 x943 -524288 x944 -1048576 x945 -2097152 x946 -4194304 x947 -8388608 x948 = 0; 
-1 x493 +1 x13 >= 0 ;
-1 x493 +1 x1 >= 0 ;
+1 x493 -1 x13 -1 x1 >= -1 ;
+1 x493 +2 x505 +4 x517 +8 x529 +16 x541 +32 x553 +64 x565 +128 x577 +256 x589 +512 x601 +1024 x613 +2048 x625 +2 x494 +4 x506 +8 x518 +16 x530 +32 x542 +64 x554 +128 x566 +256 x578 +512 x590 +1024 x602 +2048 x614 +4096 x626 +4 x495 +8 x507 +16 x519 +32 x531 +64 x543 +128 x555 +256 x567 +512 x579 +1024 x591 +2048 x603 +4096 x615 +8192 x627 +8 x496 +16 x508 +32 x520 +64 x532 +128 x544 +256 x556 +512 x568 +1024 x580 +2048 x592 +4096 x604 +8192 x616 +16384 x628 +16 x497 +32 x509 +64 x521 +128 x533 +256 x545 +512 x557 +1024 x569 +2048 x581 +4096 x593 +8192 x605 +16384 x617 +32768 x629 +32 x498 +64 x510 +128 x522 +256 x534 +512 x546 +1024 x558 +2048 x570 +4096 x582 +8192 x594 +16384 x606 +32768 x618 +65536 x630 +64 x499 +128 x511 +256 x523 +512 x535 +1024 x547 +2048 x559 +4096 x571 +8192 x583 +16384 x595 +32768 x607 +65536 x619 +131072 x631 +128 x500 +256 x512 +512 x524 +1024 x536 +2048 x548 +4096 x560 +8192 x572 +16384 x584 +32768 x596 +65536 x608 +131072 x620 +262144 x632 +256 x501 +512 x513 +1024 x525 +2048 x537 +4096 x549 +8192 x561 +16384 x573 +32768 x585 +65536 x597 +131072 x609 +262144 x621 +524288 x633 +512 x502 +1024 x514 +2048 x526 +4096 x538 +8192 x550 +16384 x562 +32768 x574 +65536 x586 +131072 x598 +262144 x610 +524288 x622 +1048576 x634 +1024 x503 +2048 x515 +4096 x527 +8192 x539 +16384 x551 +32768 x563 +65536 x575 +131072 x587 +262144 x599 +524288 x611 +1048576 x623 +2097152 x635 +2048 x504 +4096 x516 +8192 x528 +16384 x540 +32768 x552 +65536 x564 +131072 x576 +262144 x588 +524288 x600 +1048576 x612 +2097152 x624 +4194304 x636 -1 x949 -2 x950 -4 x951 -8 x952 -16 x953 -32 x954 -64 x955 -128 x956 -256 x957 -512 x958 -1024 x959 -2048 x960 -4096 x961 -8192 x962 -16384 x963 -32768 x964 -65536 x965 -131072 x966 -262144 x967 -524288 x968 -1048576 x969 -2097152 x970 -4194304 x971 -8388608 x972 = 0; 
+1 x949 -1 x925 +2 x950 -2 x926 +4 x951 -4 x927 +8 x952 -8 x928 +16 x953 -16 x929 +32 x954 -32 x930 +64 x955 -64 x931 +128 x956 -128 x932 +256 x957 -256 x933 +512 x958 -512 x934 +1024 x959 -1024 x935 +2048 x960 -2048 x936 +4096 x961 -4096 x937 +8192 x962 -8192 x938 +16384 x963 -16384 x939 +32768 x964 -32768 x940 +65536 x965 -65536 x941 +131072 x966 -131072 x942 +262144 x967 -262144 x943 +524288 x968 -524288 x944 +1048576 x969 -1048576 x945 +2097152 x970 -2097152 x946 +4194304 x971 -4194304 x947 +8388608 x972 -8388608 x948 >= 1 ;
-1 x73 +1 x26 >= 0 ;
-1 x73 +1 x37 >= 0 ;
+1 x73 -1 x26 -1 x37 >= -1 ;
-1 x62 +1 x25 >= 0 ;
-1 x62 +1 x38 >= 0 ;
+1 x62 -1 x25 -1 x38 >= -1 ;
-1 x505 +1 x14 >= 0 ;
-1 x505 +1 x1 >= 0 ;
+1 x505 -1 x14 -1 x1 >= -1 ;
-1 x494 +1 x13 >= 0 ;
-1 x494 +1 x2 >= 0 ;
+1 x494 -1 x13 -1 x2 >= -1 ;
-1 x85 +1 x27 >= 0 ;
-1 x85 +1 x37 >= 0 ;
+1 x85 -1 x27 -1 x37 >= -1 ;
-1 x74 +1 x26 >= 0 ;
-1 x74 +1 x38 >= 0 ;
+1 x74 -1 x26 -1 x38 >= -1 ;
-1 x63 +1 x25 >= 0 ;
-1 x63 +1 x39 >= 0 ;
+1 x63 -1 x25 -1 x39 >= -1 ;
-1 x517 +1 x15 >= 0 ;
-1 x517 +1 x1 >= 0 ;
+1 x517 -1 x15 -1 x1 >= -1 ;
-1 x506 +1 x14 >= 0 ;
-1 x506 +1 x2 >= 0 ;
+1 x506 -1 x14 -1 x2 >= -1 ;
-1 x495 +1 x13 >= 0 ;
-1 x495 +1 x3 >= 0 ;
+1 x495 -1 x13 -1 x3 >= -1 ;
-1 x97 +1 x28 >= 0 ;
-1 x97 +1 x37 >= 0 ;
+1 x97 -1 x28 -1 x37 >= -1 ;
-1 x86 +1 x27 >= 0 ;
-1 x86 +1 x38 >= 0 ;
+1 x86 -1 x27 -1 x38 >= -1 ;
-1 x75 +1 x26 >= 0 ;
-1 x75 +1 x39 >= 0 ;
+1 x75 -1 x26 -1 x39 >= -1 ;
-1 x64 +1 x25 >= 0 ;
-1 x64 +1 x40 >= 0 ;
+1 x64 -1 x25 -1 x40 >= -1 ;
-1 x529 +1 x16 >= 0 ;
-1 x529 +1 x1 >= 0 ;
+1 x529 -1 x16 -1 x1 >= -1 ;
-1 x518 +1 x15 >= 0 ;
-1 x518 +1 x2 >= 0 ;
+1 x518 -1 x15 -1 x2 >= -1 ;
-1 x507 +1 x14 >= 0 ;
-1 x507 +1 x3 >= 0 ;
+1 x507 -1 x14 -1 x3 >= -1 ;
-1 x496 +1 x13 >= 0 ;
-1 x496 +1 x4 >= 0 ;
+1 x496 -1 x13 -1 x4 >= -1 ;
-1 x109 +1 x29 >= 0 ;
-1 x109 +1 x37 >= 0 ;
+1 x109 -1 x29 -1 x37 >= -1 ;
-1 x98 +1 x28 >= 0 ;
-1 x98 +1 x38 >= 0 ;
+1 x98 -1 x28 -1 x38 >= -1 ;
-1 x87 +1 x27 >= 0 ;
-1 x87 +1 x39 >= 0 ;
+1 x87 -1 x27 -1 x39 >= -1 ;
-1 x76 +1 x26 >= 0 ;
-1 x76 +1 x40 >= 0 ;
+1 x76 -1 x26 -1 x40 >= -1 ;
-1 x65 +1 x25 >= 0 ;
-1 x65 +1 x41 >= 0 ;
+1 x65 -1 x25 -1 x41 >= -1 ;
-1 x541 +1 x17 >= 0 ;
-1 x541 +1 x1 >= 0 ;
+1 x541 -1 x17 -1 x1 >= -1 ;
-1 x530 +1 x16 >= 0 ;
-1 x530 +1 x2 >= 0 ;
+1 x530 -1 x16 -1 x2 >= -1 ;
-1 x519 +1 x15 >= 0 ;
-1 x519 +1 x3 >= 0 ;
+1 x519 -1 x15 -1 x3 >= -1 ;
-1 x508 +1 x14 >= 0 ;
-1 x508 +1 x4 >= 0 ;
+1 x508 -1 x14 -1 x4 >= -1 ;
-1 x497 +1 x13 >= 0 ;
-1 x497 +1 x5 >= 0 ;
+1 x497 -1 x13 -1 x5 >= -1 ;
-1 x121 +1 x30 >= 0 ;
-1 x121 +1 x37 >= 0 ;
+1 x121 -1 x30 -1 x37 >= -1 ;
-1 x110 +1 x29 >= 0 ;
-1 x110 +1 x38 >= 0 ;
+1 x110 -1 x29 -1 x38 >= -1 ;
-1 x99 +1 x28 >= 0 ;
-1 x99 +1 x39 >= 0 ;
+1 x99 -1 x28 -1 x39 >= -1 ;
-1 x88 +1 x27 >= 0 ;
-1 x88 +1 x40 >= 0 ;
+1 x88 -1 x27 -1 x40 >= -1 ;
-1 x77 +1 x26 >= 0 ;
-1 x77 +1 x41 >= 0 ;
+1 x77 -1 x26 -1 x41 >= -1 ;
-1 x66 +1 x25 >= 0 ;
-1 x66 +1 x42 >= 0 ;
+1 x66 -1 x25 -1 x42 >= -1 ;
-1 x553 +1 x18 >= 0 ;
-1 x553 +1 x1 >= 0 ;
+1 x553 -1 x18 -1 x1 >= -1 ;
-1 x542 +1 x17 >= 0 ;
-1 x542 +1 x2 >= 0 ;
+1 x542 -1 x17 -1 x2 >= -1 ;
-1 x531 +1 x16 >= 0 ;
-1 x531 +1 x3 >= 0 ;
+1 x531 -1 x16 -1 x3 >= -1 ;
-1 x520 +1 x15 >= 0 ;
-1 x520 +1 x4 >= 0 ;
+1 x520 -1 x15 -1 x4 >= -1 ;
-1 x509 +1 x14 >= 0 ;
-1 x509 +1 x5 >= 0 ;
+1 x509 -1 x14 -1 x5 >= -1 ;
-1 x498 +1 x13 >= 0 ;
-1 x498 +1 x6 >= 0 ;
+1 x498 -1 x13 -1 x6 >= -1 ;
-1 x133 +1 x31 >= 0 ;
-1 x133 +1 x37 >= 0 ;
+1 x133 -1 x31 -1 x37 >= -1 ;
-1 x122 +1 x30 >= 0 ;
-1 x122 +1 x38 >= 0 ;
+1 x122 -1 x30 -1 x38 >= -1 ;
-1 x111 +1 x29 >= 0 ;
-1 x111 +1 x39 >= 0 ;
+1 x111 -1 x29 -1 x39 >= -1 ;
-1 x100 +1 x28 >= 0 ;
-1 x100 +1 x40 >= 0 ;
+1 x100 -1 x28 -1 x40 >= -1 ;
-1 x89 +1 x27 >= 0 ;
-1 x89 +1 x41 >= 0 ;
+1 x89 -1 x27 -1 x41 >= -1 ;
-1 x78 +1 x26 >= 0 ;
-1 x78 +1 x42 >= 0 ;
+1 x78 -1 x26 -1 x42 >= -1 ;
-1 x67 +1 x25 >= 0 ;
-1 x67 +1 x43 >= 0 ;
+1 x67 -1 x25 -1 x43 >= -1 ;
-1 x565 +1 x19 >= 0 ;
-1 x565 +1 x1 >= 0 ;
+1 x565 -1 x19 -1 x1 >= -1 ;
-1 x554 +1 x18 >= 0 ;
-1 x554 +1 x2 >= 0 ;
+1 x554 -1 x18 -1 x2 >= -1 ;
-1 x543 +1 x17 >= 0 ;
-1 x543 +1 x3 >= 0 ;
+1 x543 -1 x17 -1 x3 >= -1 ;
-1 x532 +1 x16 >= 0 ;
-1 x532 +1 x4 >= 0 ;
+1 x532 -1 x16 -1 x4 >= -1 ;
-1 x521 +1 x15 >= 0 ;
-1 x521 +1 x5 >= 0 ;
+1 x521 -1 x15 -1 x5 >= -1 ;
-1 x510 +1 x14 >= 0 ;
-1 x510 +1 x6 >= 0 ;
+1 x510 -1 x14 -1 x6 >= -1 ;
-1 x499 +1 x13 >= 0 ;
-1 x499 +1 x7 >= 0 ;
+1 x499 -1 x13 -1 x7 >= -1 ;
-1 x145 +1 x32 >= 0 ;
-1 x145 +1 x37 >= 0 ;
+1 x145 -1 x32 -1 x37 >= -1 ;
-1 x134 +1 x31 >= 0 ;
-1 x134 +1 x38 >= 0 ;
+1 x134 -1 x31 -1 x38 >= -1 ;
-1 x123 +1 x30 >= 0 ;
-1 x123 +1 x39 >= 0 ;
+1 x123 -1 x30 -1 x39 >= -1 ;
-1 x112 +1 x29 >= 0 ;
-1 x112 +1 x40 >= 0 ;
+1 x112 -1 x29 -1 x40 >= -1 ;
-1 x101 +1 x28 >= 0 ;
-1 x101 +1 x41 >= 0 ;
+1 x101 -1 x28 -1 x41 >= -1 ;
-1 x90 +1 x27 >= 0 ;
-1 x90 +1 x42 >= 0 ;
+1 x90 -1 x27 -1 x42 >= -1 ;
-1 x79 +1 x26 >= 0 ;
-1 x79 +1 x43 >= 0 ;
+1 x79 -1 x26 -1 x43 >= -1 ;
-1 x68 +1 x25 >= 0 ;
-1 x68 +1 x44 >= 0 ;
+1 x68 -1 x25 -1 x44 >= -1 ;
-1 x577 +1 x20 >= 0 ;
-1 x577 +1 x1 >= 0 ;
+1 x577 -1 x20 -1 x1 >= -1 ;
-1 x566 +1 x19 >= 0 ;
-1 x566 +1 x2 >= 0 ;
+1 x566 -1 x19 -1 x2 >= -1 ;
-1 x555 +1 x18 >= 0 ;
-1 x555 +1 x3 >= 0 ;
+1 x555 -1 x18 -1 x3 >= -1 ;
-1 x544 +1 x17 >= 0 ;
-1 x544 +1 x4 >= 0 ;
+1 x544 -1 x17 -1 x4 >= -1 ;
-1 x533 +1 x16 >= 0 ;
-1 x533 +1 x5 >= 0 ;
+1 x533 -1 x16 -1 x5 >= -1 ;
-1 x522 +1 x15 >= 0 ;
-1 x522 +1 x6 >= 0 ;
+1 x522 -1 x15 -1 x6 >= -1 ;
-1 x511 +1 x14 >= 0 ;
-1 x511 +1 x7 >= 0 ;
+1 x511 -1 x14 -1 x7 >= -1 ;
-1 x500 +1 x13 >= 0 ;
-1 x500 +1 x8 >= 0 ;
+1 x500 -1 x13 -1 x8 >= -1 ;
-1 x157 +1 x33 >= 0 ;
-1 x157 +1 x37 >= 0 ;
+1 x157 -1 x33 -1 x37 >= -1 ;
-1 x146 +1 x32 >= 0 ;
-1 x146 +1 x38 >= 0 ;
+1 x146 -1 x32 -1 x38 >= -1 ;
-1 x135 +1 x31 >= 0 ;
-1 x135 +1 x39 >= 0 ;
+1 x135 -1 x31 -1 x39 >= -1 ;
-1 x124 +1 x30 >= 0 ;
-1 x124 +1 x40 >= 0 ;
+1 x124 -1 x30 -1 x40 >= -1 ;
-1 x113 +1 x29 >= 0 ;
-1 x113 +1 x41 >= 0 ;
+1 x113 -1 x29 -1 x41 >= -1 ;
-1 x102 +1 x28 >= 0 ;
-1 x102 +1 x42 >= 0 ;
+1 x102 -1 x28 -1 x42 >= -1 ;
-1 x91 +1 x27 >= 0 ;
-1 x91 +1 x43 >= 0 ;
+1 x91 -1 x27 -1 x43 >= -1 ;
-1 x80 +1 x26 >= 0 ;
-1 x80 +1 x44 >= 0 ;
+1 x80 -1 x26 -1 x44 >= -1 ;
-1 x69 +1 x25 >= 0 ;
-1 x69 +1 x45 >= 0 ;
+1 x69 -1 x25 -1 x45 >= -1 ;
-1 x589 +1 x21 >= 0 ;
-1 x589 +1 x1 >= 0 ;
+1 x589 -1 x21 -1 x1 >= -1 ;
-1 x578 +1 x20 >= 0 ;
-1 x578 +1 x2 >= 0 ;
+1 x578 -1 x20 -1 x2 >= -1 ;
-1 x567 +1 x19 >= 0 ;
-1 x567 +1 x3 >= 0 ;
+1 x567 -1 x19 -1 x3 >= -1 ;
-1 x556 +1 x18 >= 0 ;
-1 x556 +1 x4 >= 0 ;
+1 x556 -1 x18 -1 x4 >= -1 ;
-1 x545 +1 x17 >= 0 ;
-1 x545 +1 x5 >= 0 ;
+1 x545 -1 x17 -1 x5 >= -1 ;
-1 x534 +1 x16 >= 0 ;
-1 x534 +1 x6 >= 0 ;
+1 x534 -1 x16 -1 x6 >= -1 ;
-1 x523 +1 x15 >= 0 ;
-1 x523 +1 x7 >= 0 ;
+1 x523 -1 x15 -1 x7 >= -1 ;
-1 x512 +1 x14 >= 0 ;
-1 x512 +1 x8 >= 0 ;
+1 x512 -1 x14 -1 x8 >= -1 ;
-1 x501 +1 x13 >= 0 ;
-1 x501 +1 x9 >= 0 ;
+1 x501 -1 x13 -1 x9 >= -1 ;
-1 x169 +1 x34 >= 0 ;
-1 x169 +1 x37 >= 0 ;
+1 x169 -1 x34 -1 x37 >= -1 ;
-1 x158 +1 x33 >= 0 ;
-1 x158 +1 x38 >= 0 ;
+1 x158 -1 x33 -1 x38 >= -1 ;
-1 x147 +1 x32 >= 0 ;
-1 x147 +1 x39 >= 0 ;
+1 x147 -1 x32 -1 x39 >= -1 ;
-1 x136 +1 x31 >= 0 ;
-1 x136 +1 x40 >= 0 ;
+1 x136 -1 x31 -1 x40 >= -1 ;
-1 x125 +1 x30 >= 0 ;
-1 x125 +1 x41 >= 0 ;
+1 x125 -1 x30 -1 x41 >= -1 ;
-1 x114 +1 x29 >= 0 ;
-1 x114 +1 x42 >= 0 ;
+1 x114 -1 x29 -1 x42 >= -1 ;
-1 x103 +1 x28 >= 0 ;
-1 x103 +1 x43 >= 0 ;
+1 x103 -1 x28 -1 x43 >= -1 ;
-1 x92 +1 x27 >= 0 ;
-1 x92 +1 x44 >= 0 ;
+1 x92 -1 x27 -1 x44 >= -1 ;
-1 x81 +1 x26 >= 0 ;
-1 x81 +1 x45 >= 0 ;
+1 x81 -1 x26 -1 x45 >= -1 ;
-1 x70 +1 x25 >= 0 ;
-1 x70 +1 x46 >= 0 ;
+1 x70 -1 x25 -1 x46 >= -1 ;
-1 x601 +1 x22 >= 0 ;
-1 x601 +1 x1 >= 0 ;
+1 x601 -1 x22 -1 x1 >= -1 ;
-1 x590 +1 x21 >= 0 ;
-1 x590 +1 x2 >= 0 ;
+1 x590 -1 x21 -1 x2 >= -1 ;
-1 x579 +1 x20 >= 0 ;
-1 x579 +1 x3 >= 0 ;
+1 x579 -1 x20 -1 x3 >= -1 ;
-1 x568 +1 x19 >= 0 ;
-1 x568 +1 x4 >= 0 ;
+1 x568 -1 x19 -1 x4 >= -1 ;
-1 x557 +1 x18 >= 0 ;
-1 x557 +1 x5 >= 0 ;
+1 x557 -1 x18 -1 x5 >= -1 ;
-1 x546 +1 x17 >= 0 ;
-1 x546 +1 x6 >= 0 ;
+1 x546 -1 x17 -1 x6 >= -1 ;
-1 x535 +1 x16 >= 0 ;
-1 x535 +1 x7 >= 0 ;
+1 x535 -1 x16 -1 x7 >= -1 ;
-1 x524 +1 x15 >= 0 ;
-1 x524 +1 x8 >= 0 ;
+1 x524 -1 x15 -1 x8 >= -1 ;
-1 x513 +1 x14 >= 0 ;
-1 x513 +1 x9 >= 0 ;
+1 x513 -1 x14 -1 x9 >= -1 ;
-1 x502 +1 x13 >= 0 ;
-1 x502 +1 x10 >= 0 ;
+1 x502 -1 x13 -1 x10 >= -1 ;
-1 x181 +1 x35 >= 0 ;
-1 x181 +1 x37 >= 0 ;
+1 x181 -1 x35 -1 x37 >= -1 ;
-1 x170 +1 x34 >= 0 ;
-1 x170 +1 x38 >= 0 ;
+1 x170 -1 x34 -1 x38 >= -1 ;
-1 x159 +1 x33 >= 0 ;
-1 x159 +1 x39 >= 0 ;
+1 x159 -1 x33 -1 x39 >= -1 ;
-1 x148 +1 x32 >= 0 ;
-1 x148 +1 x40 >= 0 ;
+1 x148 -1 x32 -1 x40 >= -1 ;
-1 x137 +1 x31 >= 0 ;
-1 x137 +1 x41 >= 0 ;
+1 x137 -1 x31 -1 x41 >= -1 ;
-1 x126 +1 x30 >= 0 ;
-1 x126 +1 x42 >= 0 ;
+1 x126 -1 x30 -1 x42 >= -1 ;
-1 x115 +1 x29 >= 0 ;
-1 x115 +1 x43 >= 0 ;
+1 x115 -1 x29 -1 x43 >= -1 ;
-1 x104 +1 x28 >= 0 ;
-1 x104 +1 x44 >= 0 ;
+1 x104 -1 x28 -1 x44 >= -1 ;
-1 x93 +1 x27 >= 0 ;
-1 x93 +1 x45 >= 0 ;
+1 x93 -1 x27 -1 x45 >= -1 ;
-1 x82 +1 x26 >= 0 ;
-1 x82 +1 x46 >= 0 ;
+1 x82 -1 x26 -1 x46 >= -1 ;
-1 x71 +1 x25 >= 0 ;
-1 x71 +1 x47 >= 0 ;
+1 x71 -1 x25 -1 x47 >= -1 ;
-1 x613 +1 x23 >= 0 ;
-1 x613 +1 x1 >= 0 ;
+1 x613 -1 x23 -1 x1 >= -1 ;
-1 x602 +1 x22 >= 0 ;
-1 x602 +1 x2 >= 0 ;
+1 x602 -1 x22 -1 x2 >= -1 ;
-1 x591 +1 x21 >= 0 ;
-1 x591 +1 x3 >= 0 ;
+1 x591 -1 x21 -1 x3 >= -1 ;
-1 x580 +1 x20 >= 0 ;
-1 x580 +1 x4 >= 0 ;
+1 x580 -1 x20 -1 x4 >= -1 ;
-1 x569 +1 x19 >= 0 ;
-1 x569 +1 x5 >= 0 ;
+1 x569 -1 x19 -1 x5 >= -1 ;
-1 x558 +1 x18 >= 0 ;
-1 x558 +1 x6 >= 0 ;
+1 x558 -1 x18 -1 x6 >= -1 ;
-1 x547 +1 x17 >= 0 ;
-1 x547 +1 x7 >= 0 ;
+1 x547 -1 x17 -1 x7 >= -1 ;
-1 x536 +1 x16 >= 0 ;
-1 x536 +1 x8 >= 0 ;
+1 x536 -1 x16 -1 x8 >= -1 ;
-1 x525 +1 x15 >= 0 ;
-1 x525 +1 x9 >= 0 ;
+1 x525 -1 x15 -1 x9 >= -1 ;
-1 x514 +1 x14 >= 0 ;
-1 x514 +1 x10 >= 0 ;
+1 x514 -1 x14 -1 x10 >= -1 ;
-1 x503 +1 x13 >= 0 ;
-1 x503 +1 x11 >= 0 ;
+1 x503 -1 x13 -1 x11 >= -1 ;
-1 x193 +1 x36 >= 0 ;
-1 x193 +1 x37 >= 0 ;
+1 x193 -1 x36 -1 x37 >= -1 ;
-1 x182 +1 x35 >= 0 ;
-1 x182 +1 x38 >= 0 ;
+1 x182 -1 x35 -1 x38 >= -1 ;
-1 x171 +1 x34 >= 0 ;
-1 x171 +1 x39 >= 0 ;
+1 x171 -1 x34 -1 x39 >= -1 ;
-1 x160 +1 x33 >= 0 ;
-1 x160 +1 x40 >= 0 ;
+1 x160 -1 x33 -1 x40 >= -1 ;
-1 x149 +1 x32 >= 0 ;
-1 x149 +1 x41 >= 0 ;
+1 x149 -1 x32 -1 x41 >= -1 ;
-1 x138 +1 x31 >= 0 ;
-1 x138 +1 x42 >= 0 ;
+1 x138 -1 x31 -1 x42 >= -1 ;
-1 x127 +1 x30 >= 0 ;
-1 x127 +1 x43 >= 0 ;
+1 x127 -1 x30 -1 x43 >= -1 ;
-1 x116 +1 x29 >= 0 ;
-1 x116 +1 x44 >= 0 ;
+1 x116 -1 x29 -1 x44 >= -1 ;
-1 x105 +1 x28 >= 0 ;
-1 x105 +1 x45 >= 0 ;
+1 x105 -1 x28 -1 x45 >= -1 ;
-1 x94 +1 x27 >= 0 ;
-1 x94 +1 x46 >= 0 ;
+1 x94 -1 x27 -1 x46 >= -1 ;
-1 x83 +1 x26 >= 0 ;
-1 x83 +1 x47 >= 0 ;
+1 x83 -1 x26 -1 x47 >= -1 ;
-1 x72 +1 x25 >= 0 ;
-1 x72 +1 x48 >= 0 ;
+1 x72 -1 x25 -1 x48 >= -1 ;
-1 x625 +1 x24 >= 0 ;
-1 x625 +1 x1 >= 0 ;
+1 x625 -1 x24 -1 x1 >= -1 ;
-1 x614 +1 x23 >= 0 ;
-1 x614 +1 x2 >= 0 ;
+1 x614 -1 x23 -1 x2 >= -1 ;
-1 x603 +1 x22 >= 0 ;
-1 x603 +1 x3 >= 0 ;
+1 x603 -1 x22 -1 x3 >= -1 ;
-1 x592 +1 x21 >= 0 ;
-1 x592 +1 x4 >= 0 ;
+1 x592 -1 x21 -1 x4 >= -1 ;
-1 x581 +1 x20 >= 0 ;
-1 x581 +1 x5 >= 0 ;
+1 x581 -1 x20 -1 x5 >= -1 ;
-1 x570 +1 x19 >= 0 ;
-1 x570 +1 x6 >= 0 ;
+1 x570 -1 x19 -1 x6 >= -1 ;
-1 x559 +1 x18 >= 0 ;
-1 x559 +1 x7 >= 0 ;
+1 x559 -1 x18 -1 x7 >= -1 ;
-1 x548 +1 x17 >= 0 ;
-1 x548 +1 x8 >= 0 ;
+1 x548 -1 x17 -1 x8 >= -1 ;
-1 x537 +1 x16 >= 0 ;
-1 x537 +1 x9 >= 0 ;
+1 x537 -1 x16 -1 x9 >= -1 ;
-1 x526 +1 x15 >= 0 ;
-1 x526 +1 x10 >= 0 ;
+1 x526 -1 x15 -1 x10 >= -1 ;
-1 x515 +1 x14 >= 0 ;
-1 x515 +1 x11 >= 0 ;
+1 x515 -1 x14 -1 x11 >= -1 ;
-1 x504 +1 x13 >= 0 ;
-1 x504 +1 x12 >= 0 ;
+1 x504 -1 x13 -1 x12 >= -1 ;
-1 x194 +1 x36 >= 0 ;
-1 x194 +1 x38 >= 0 ;
+1 x194 -1 x36 -1 x38 >= -1 ;
-1 x183 +1 x35 >= 0 ;
-1 x183 +1 x39 >= 0 ;
+1 x183 -1 x35 -1 x39 >= -1 ;
-1 x172 +1 x34 >= 0 ;
-1 x172 +1 x40 >= 0 ;
+1 x172 -1 x34 -1 x40 >= -1 ;
-1 x161 +1 x33 >= 0 ;
-1 x161 +1 x41 >= 0 ;
+1 x161 -1 x33 -1 x41 >= -1 ;
-1 x150 +1 x32 >= 0 ;
-1 x150 +1 x42 >= 0 ;
+1 x150 -1 x32 -1 x42 >= -1 ;
-1 x139 +1 x31 >= 0 ;
-1 x139 +1 x43 >= 0 ;
+1 x139 -1 x31 -1 x43 >= -1 ;
-1 x128 +1 x30 >= 0 ;
-1 x128 +1 x44 >= 0 ;
+1 x128 -1 x30 -1 x44 >= -1 ;
-1 x117 +1 x29 >= 0 ;
-1 x117 +1 x45 >= 0 ;
+1 x117 -1 x29 -1 x45 >= -1 ;
-1 x106 +1 x28 >= 0 ;
-1 x106 +1 x46 >= 0 ;
+1 x106 -1 x28 -1 x46 >= -1 ;
-1 x95 +1 x27 >= 0 ;
-1 x95 +1 x47 >= 0 ;
+1 x95 -1 x27 -1 x47 >= -1 ;
-1 x84 +1 x26 >= 0 ;
-1 x84 +1 x48 >= 0 ;
+1 x84 -1 x26 -1 x48 >= -1 ;
-1 x626 +1 x24 >= 0 ;
-1 x626 +1 x2 >= 0 ;
+1 x626 -1 x24 -1 x2 >= -1 ;
-1 x615 +1 x23 >= 0 ;
-1 x615 +1 x3 >= 0 ;
+1 x615 -1 x23 -1 x3 >= -1 ;
-1 x604 +1 x22 >= 0 ;
-1 x604 +1 x4 >= 0 ;
+1 x604 -1 x22 -1 x4 >= -1 ;
-1 x593 +1 x21 >= 0 ;
-1 x593 +1 x5 >= 0 ;
+1 x593 -1 x21 -1 x5 >= -1 ;
-1 x582 +1 x20 >= 0 ;
-1 x582 +1 x6 >= 0 ;
+1 x582 -1 x20 -1 x6 >= -1 ;
-1 x571 +1 x19 >= 0 ;
-1 x571 +1 x7 >= 0 ;
+1 x571 -1 x19 -1 x7 >= -1 ;
-1 x560 +1 x18 >= 0 ;
-1 x560 +1 x8 >= 0 ;
+1 x560 -1 x18 -1 x8 >= -1 ;
-1 x549 +1 x17 >= 0 ;
-1 x549 +1 x9 >= 0 ;
+1 x549 -1 x17 -1 x9 >= -1 ;
-1 x538 +1 x16 >= 0 ;
-1 x538 +1 x10 >= 0 ;
+1 x538 -1 x16 -1 x10 >= -1 ;
-1 x527 +1 x15 >= 0 ;
-1 x527 +1 x11 >= 0 ;
+1 x527 -1 x15 -1 x11 >= -1 ;
-1 x516 +1 x14 >= 0 ;
-1 x516 +1 x12 >= 0 ;
+1 x516 -1 x14 -1 x12 >= -1 ;
-1 x195 +1 x36 >= 0 ;
-1 x195 +1 x39 >= 0 ;
+1 x195 -1 x36 -1 x39 >= -1 ;
-1 x184 +1 x35 >= 0 ;
-1 x184 +1 x40 >= 0 ;
+1 x184 -1 x35 -1 x40 >= -1 ;
-1 x173 +1 x34 >= 0 ;
-1 x173 +1 x41 >= 0 ;
+1 x173 -1 x34 -1 x41 >= -1 ;
-1 x162 +1 x33 >= 0 ;
-1 x162 +1 x42 >= 0 ;
+1 x162 -1 x33 -1 x42 >= -1 ;
-1 x151 +1 x32 >= 0 ;
-1 x151 +1 x43 >= 0 ;
+1 x151 -1 x32 -1 x43 >= -1 ;
-1 x140 +1 x31 >= 0 ;
-1 x140 +1 x44 >= 0 ;
+1 x140 -1 x31 -1 x44 >= -1 ;
-1 x129 +1 x30 >= 0 ;
-1 x129 +1 x45 >= 0 ;
+1 x129 -1 x30 -1 x45 >= -1 ;
-1 x118 +1 x29 >= 0 ;
-1 x118 +1 x46 >= 0 ;
+1 x118 -1 x29 -1 x46 >= -1 ;
-1 x107 +1 x28 >= 0 ;
-1 x107 +1 x47 >= 0 ;
+1 x107 -1 x28 -1 x47 >= -1 ;
-1 x96 +1 x27 >= 0 ;
-1 x96 +1 x48 >= 0 ;
+1 x96 -1 x27 -1 x48 >= -1 ;
-1 x627 +1 x24 >= 0 ;
-1 x627 +1 x3 >= 0 ;
+1 x627 -1 x24 -1 x3 >= -1 ;
-1 x616 +1 x23 >= 0 ;
-1 x616 +1 x4 >= 0 ;
+1 x616 -1 x23 -1 x4 >= -1 ;
-1 x605 +1 x22 >= 0 ;
-1 x605 +1 x5 >= 0 ;
+1 x605 -1 x22 -1 x5 >= -1 ;
-1 x594 +1 x21 >= 0 ;
-1 x594 +1 x6 >= 0 ;
+1 x594 -1 x21 -1 x6 >= -1 ;
-1 x583 +1 x20 >= 0 ;
-1 x583 +1 x7 >= 0 ;
+1 x583 -1 x20 -1 x7 >= -1 ;
-1 x572 +1 x19 >= 0 ;
-1 x572 +1 x8 >= 0 ;
+1 x572 -1 x19 -1 x8 >= -1 ;
-1 x561 +1 x18 >= 0 ;
-1 x561 +1 x9 >= 0 ;
+1 x561 -1 x18 -1 x9 >= -1 ;
-1 x550 +1 x17 >= 0 ;
-1 x550 +1 x10 >= 0 ;
+1 x550 -1 x17 -1 x10 >= -1 ;
-1 x539 +1 x16 >= 0 ;
-1 x539 +1 x11 >= 0 ;
+1 x539 -1 x16 -1 x11 >= -1 ;
-1 x528 +1 x15 >= 0 ;
-1 x528 +1 x12 >= 0 ;
+1 x528 -1 x15 -1 x12 >= -1 ;
-1 x196 +1 x36 >= 0 ;
-1 x196 +1 x40 >= 0 ;
+1 x196 -1 x36 -1 x40 >= -1 ;
-1 x185 +1 x35 >= 0 ;
-1 x185 +1 x41 >= 0 ;
+1 x185 -1 x35 -1 x41 >= -1 ;
-1 x174 +1 x34 >= 0 ;
-1 x174 +1 x42 >= 0 ;
+1 x174 -1 x34 -1 x42 >= -1 ;
-1 x163 +1 x33 >= 0 ;
-1 x163 +1 x43 >= 0 ;
+1 x163 -1 x33 -1 x43 >= -1 ;
-1 x152 +1 x32 >= 0 ;
-1 x152 +1 x44 >= 0 ;
+1 x152 -1 x32 -1 x44 >= -1 ;
-1 x141 +1 x31 >= 0 ;
-1 x141 +1 x45 >= 0 ;
+1 x141 -1 x31 -1 x45 >= -1 ;
-1 x130 +1 x30 >= 0 ;
-1 x130 +1 x46 >= 0 ;
+1 x130 -1 x30 -1 x46 >= -1 ;
-1 x119 +1 x29 >= 0 ;
-1 x119 +1 x47 >= 0 ;
+1 x119 -1 x29 -1 x47 >= -1 ;
-1 x108 +1 x28 >= 0 ;
-1 x108 +1 x48 >= 0 ;
+1 x108 -1 x28 -1 x48 >= -1 ;
-1 x628 +1 x24 >= 0 ;
-1 x628 +1 x4 >= 0 ;
+1 x628 -1 x24 -1 x4 >= -1 ;
-1 x617 +1 x23 >= 0 ;
-1 x617 +1 x5 >= 0 ;
+1 x617 -1 x23 -1 x5 >= -1 ;
-1 x606 +1 x22 >= 0 ;
-1 x606 +1 x6 >= 0 ;
+1 x606 -1 x22 -1 x6 >= -1 ;
-1 x595 +1 x21 >= 0 ;
-1 x595 +1 x7 >= 0 ;
+1 x595 -1 x21 -1 x7 >= -1 ;
-1 x584 +1 x20 >= 0 ;
-1 x584 +1 x8 >= 0 ;
+1 x584 -1 x20 -1 x8 >= -1 ;
-1 x573 +1 x19 >= 0 ;
-1 x573 +1 x9 >= 0 ;
+1 x573 -1 x19 -1 x9 >= -1 ;
-1 x562 +1 x18 >= 0 ;
-1 x562 +1 x10 >= 0 ;
+1 x562 -1 x18 -1 x10 >= -1 ;
-1 x551 +1 x17 >= 0 ;
-1 x551 +1 x11 >= 0 ;
+1 x551 -1 x17 -1 x11 >= -1 ;
-1 x540 +1 x16 >= 0 ;
-1 x540 +1 x12 >= 0 ;
+1 x540 -1 x16 -1 x12 >= -1 ;
-1 x197 +1 x36 >= 0 ;
-1 x197 +1 x41 >= 0 ;
+1 x197 -1 x36 -1 x41 >= -1 ;
-1 x186 +1 x35 >= 0 ;
-1 x186 +1 x42 >= 0 ;
+1 x186 -1 x35 -1 x42 >= -1 ;
-1 x175 +1 x34 >= 0 ;
-1 x175 +1 x43 >= 0 ;
+1 x175 -1 x34 -1 x43 >= -1 ;
-1 x164 +1 x33 >= 0 ;
-1 x164 +1 x44 >= 0 ;
+1 x164 -1 x33 -1 x44 >= -1 ;
-1 x153 +1 x32 >= 0 ;
-1 x153 +1 x45 >= 0 ;
+1 x153 -1 x32 -1 x45 >= -1 ;
-1 x142 +1 x31 >= 0 ;
-1 x142 +1 x46 >= 0 ;
+1 x142 -1 x31 -1 x46 >= -1 ;
-1 x131 +1 x30 >= 0 ;
-1 x131 +1 x47 >= 0 ;
+1 x131 -1 x30 -1 x47 >= -1 ;
-1 x120 +1 x29 >= 0 ;
-1 x120 +1 x48 >= 0 ;
+1 x120 -1 x29 -1 x48 >= -1 ;
-1 x629 +1 x24 >= 0 ;
-1 x629 +1 x5 >= 0 ;
+1 x629 -1 x24 -1 x5 >= -1 ;
-1 x618 +1 x23 >= 0 ;
-1 x618 +1 x6 >= 0 ;
+1 x618 -1 x23 -1 x6 >= -1 ;
-1 x607 +1 x22 >= 0 ;
-1 x607 +1 x7 >= 0 ;
+1 x607 -1 x22 -1 x7 >= -1 ;
-1 x596 +1 x21 >= 0 ;
-1 x596 +1 x8 >= 0 ;
+1 x596 -1 x21 -1 x8 >= -1 ;
-1 x585 +1 x20 >= 0 ;
-1 x585 +1 x9 >= 0 ;
+1 x585 -1 x20 -1 x9 >= -1 ;
-1 x574 +1 x19 >= 0 ;
-1 x574 +1 x10 >= 0 ;
+1 x574 -1 x19 -1 x10 >= -1 ;
-1 x563 +1 x18 >= 0 ;
-1 x563 +1 x11 >= 0 ;
+1 x563 -1 x18 -1 x11 >= -1 ;
-1 x552 +1 x17 >= 0 ;
-1 x552 +1 x12 >= 0 ;
+1 x552 -1 x17 -1 x12 >= -1 ;
-1 x198 +1 x36 >= 0 ;
-1 x198 +1 x42 >= 0 ;
+1 x198 -1 x36 -1 x42 >= -1 ;
-1 x187 +1 x35 >= 0 ;
-1 x187 +1 x43 >= 0 ;
+1 x187 -1 x35 -1 x43 >= -1 ;
-1 x176 +1 x34 >= 0 ;
-1 x176 +1 x44 >= 0 ;
+1 x176 -1 x34 -1 x44 >= -1 ;
-1 x165 +1 x33 >= 0 ;
-1 x165 +1 x45 >= 0 ;
+1 x165 -1 x33 -1 x45 >= -1 ;
-1 x154 +1 x32 >= 0 ;
-1 x154 +1 x46 >= 0 ;
+1 x154 -1 x32 -1 x46 >= -1 ;
-1 x143 +1 x31 >= 0 ;
-1 x143 +1 x47 >= 0 ;
+1 x143 -1 x31 -1 x47 >= -1 ;
-1 x132 +1 x30 >= 0 ;
-1 x132 +1 x48 >= 0 ;
+1 x132 -1 x30 -1 x48 >= -1 ;
-1 x630 +1 x24 >= 0 ;
-1 x630 +1 x6 >= 0 ;
+1 x630 -1 x24 -1 x6 >= -1 ;
-1 x619 +1 x23 >= 0 ;
-1 x619 +1 x7 >= 0 ;
+1 x619 -1 x23 -1 x7 >= -1 ;
-1 x608 +1 x22 >= 0 ;
-1 x608 +1 x8 >= 0 ;
+1 x608 -1 x22 -1 x8 >= -1 ;
-1 x597 +1 x21 >= 0 ;
-1 x597 +1 x9 >= 0 ;
+1 x597 -1 x21 -1 x9 >= -1 ;
-1 x586 +1 x20 >= 0 ;
-1 x586 +1 x10 >= 0 ;
+1 x586 -1 x20 -1 x10 >= -1 ;
-1 x575 +1 x19 >= 0 ;
-1 x575 +1 x11 >= 0 ;
+1 x575 -1 x19 -1 x11 >= -1 ;
-1 x564 +1 x18 >= 0 ;
-1 x564 +1 x12 >= 0 ;
+1 x564 -1 x18 -1 x12 >= -1 ;
-1 x199 +1 x36 >= 0 ;
-1 x199 +1 x43 >= 0 ;
+1 x199 -1 x36 -1 x43 >= -1 ;
-1 x188 +1 x35 >= 0 ;
-1 x188 +1 x44 >= 0 ;
+1 x188 -1 x35 -1 x44 >= -1 ;
-1 x177 +1 x34 >= 0 ;
-1 x177 +1 x45 >= 0 ;
+1 x177 -1 x34 -1 x45 >= -1 ;
-1 x166 +1 x33 >= 0 ;
-1 x166 +1 x46 >= 0 ;
+1 x166 -1 x33 -1 x46 >= -1 ;
-1 x155 +1 x32 >= 0 ;
-1 x155 +1 x47 >= 0 ;
+1 x155 -1 x32 -1 x47 >= -1 ;
-1 x144 +1 x31 >= 0 ;
-1 x144 +1 x48 >= 0 ;
+1 x144 -1 x31 -1 x48 >= -1 ;
-1 x631 +1 x24 >= 0 ;
-1 x631 +1 x7 >= 0 ;
+1 x631 -1 x24 -1 x7 >= -1 ;
-1 x620 +1 x23 >= 0 ;
-1 x620 +1 x8 >= 0 ;
+1 x620 -1 x23 -1 x8 >= -1 ;
-1 x609 +1 x22 >= 0 ;
-1 x609 +1 x9 >= 0 ;
+1 x609 -1 x22 -1 x9 >= -1 ;
-1 x598 +1 x21 >= 0 ;
-1 x598 +1 x10 >= 0 ;
+1 x598 -1 x21 -1 x10 >= -1 ;
-1 x587 +1 x20 >= 0 ;
-1 x587 +1 x11 >= 0 ;
+1 x587 -1 x20 -1 x11 >= -1 ;
-1 x576 +1 x19 >= 0 ;
-1 x576 +1 x12 >= 0 ;
+1 x576 -1 x19 -1 x12 >= -1 ;
-1 x200 +1 x36 >= 0 ;
-1 x200 +1 x44 >= 0 ;
+1 x200 -1 x36 -1 x44 >= -1 ;
-1 x189 +1 x35 >= 0 ;
-1 x189 +1 x45 >= 0 ;
+1 x189 -1 x35 -1 x45 >= -1 ;
-1 x178 +1 x34 >= 0 ;
-1 x178 +1 x46 >= 0 ;
+1 x178 -1 x34 -1 x46 >= -1 ;
-1 x167 +1 x33 >= 0 ;
-1 x167 +1 x47 >= 0 ;
+1 x167 -1 x33 -1 x47 >= -1 ;
-1 x156 +1 x32 >= 0 ;
-1 x156 +1 x48 >= 0 ;
+1 x156 -1 x32 -1 x48 >= -1 ;
-1 x632 +1 x24 >= 0 ;
-1 x632 +1 x8 >= 0 ;
+1 x632 -1 x24 -1 x8 >= -1 ;
-1 x621 +1 x23 >= 0 ;
-1 x621 +1 x9 >= 0 ;
+1 x621 -1 x23 -1 x9 >= -1 ;
-1 x610 +1 x22 >= 0 ;
-1 x610 +1 x10 >= 0 ;
+1 x610 -1 x22 -1 x10 >= -1 ;
-1 x599 +1 x21 >= 0 ;
-1 x599 +1 x11 >= 0 ;
+1 x599 -1 x21 -1 x11 >= -1 ;
-1 x588 +1 x20 >= 0 ;
-1 x588 +1 x12 >= 0 ;
+1 x588 -1 x20 -1 x12 >= -1 ;
-1 x201 +1 x36 >= 0 ;
-1 x201 +1 x45 >= 0 ;
+1 x201 -1 x36 -1 x45 >= -1 ;
-1 x190 +1 x35 >= 0 ;
-1 x190 +1 x46 >= 0 ;
+1 x190 -1 x35 -1 x46 >= -1 ;
-1 x179 +1 x34 >= 0 ;
-1 x179 +1 x47 >= 0 ;
+1 x179 -1 x34 -1 x47 >= -1 ;
-1 x168 +1 x33 >= 0 ;
-1 x168 +1 x48 >= 0 ;
+1 x168 -1 x33 -1 x48 >= -1 ;
-1 x633 +1 x24 >= 0 ;
-1 x633 +1 x9 >= 0 ;
+1 x633 -1 x24 -1 x9 >= -1 ;
-1 x622 +1 x23 >= 0 ;
-1 x622 +1 x10 >= 0 ;
+1 x622 -1 x23 -1 x10 >= -1 ;
-1 x611 +1 x22 >= 0 ;
-1 x611 +1 x11 >= 0 ;
+1 x611 -1 x22 -1 x11 >= -1 ;
-1 x600 +1 x21 >= 0 ;
-1 x600 +1 x12 >= 0 ;
+1 x600 -1 x21 -1 x12 >= -1 ;
-1 x202 +1 x36 >= 0 ;
-1 x202 +1 x46 >= 0 ;
+1 x202 -1 x36 -1 x46 >= -1 ;
-1 x191 +1 x35 >= 0 ;
-1 x191 +1 x47 >= 0 ;
+1 x191 -1 x35 -1 x47 >= -1 ;
-1 x180 +1 x34 >= 0 ;
-1 x180 +1 x48 >= 0 ;
+1 x180 -1 x34 -1 x48 >= -1 ;
-1 x634 +1 x24 >= 0 ;
-1 x634 +1 x10 >= 0 ;
+1 x634 -1 x24 -1 x10 >= -1 ;
-1 x623 +1 x23 >= 0 ;
-1 x623 +1 x11 >= 0 ;
+1 x623 -1 x23 -1 x11 >= -1 ;
-1 x612 +1 x22 >= 0 ;
-1 x612 +1 x12 >= 0 ;
+1 x612 -1 x22 -1 x12 >= -1 ;
-1 x203 +1 x36 >= 0 ;
-1 x203 +1 x47 >= 0 ;
+1 x203 -1 x36 -1 x47 >= -1 ;
-1 x192 +1 x35 >= 0 ;
-1 x192 +1 x48 >= 0 ;
+1 x192 -1 x35 -1 x48 >= -1 ;
-1 x635 +1 x24 >= 0 ;
-1 x635 +1 x11 >= 0 ;
+1 x635 -1 x24 -1 x11 >= -1 ;
-1 x624 +1 x23 >= 0 ;
-1 x624 +1 x12 >= 0 ;
+1 x624 -1 x23 -1 x12 >= -1 ;
-1 x204 +1 x36 >= 0 ;
-1 x204 +1 x48 >= 0 ;
+1 x204 -1 x36 -1 x48 >= -1 ;
-1 x636 +1 x24 >= 0 ;
-1 x636 +1 x12 >= 0 ;
+1 x636 -1 x24 -1 x12 >= -1 ;
